$molecule
0 1
 C   0.00000000   0.71817600   0.00000000
 C   0.00000000  -0.71817600   0.00000000
 C  -1.24721700   1.40458900   0.00000000
 C  -1.24721700  -1.40458900   0.00000000
 C  -2.43820700  -0.70931400   0.00000000
 H  -3.38829700  -1.24972900   0.00000000
 C  -2.43820700   0.70931400   0.00000000
 H  -3.38829700   1.24972900   0.00000000
 H  -1.24548400   2.49824300   0.00000000
 H  -1.24548400  -2.49824300   0.00000000
 C   1.24247096   1.40458900   0.10870212
 C   1.24247096  -1.40458900   0.10870212
 C   2.42892889  -0.70931400   0.21250374
 H   3.37540351  -1.24972900   0.29530954
 C   2.42892889   0.70931400   0.21250374
 H   3.37540351   1.24972900   0.29530954
 H   1.24074456   2.49824300   0.10855108
 H   1.24074456  -2.49824300   0.10855108
$end

$rem
job_type sp
symmetry false
sym_ignore  true
METHOD cam-b3lyp
BASIS  6-31+G*
THRESH 14
MAX_SCF_CYCLES  500
XC_GRID  000120000194
scf_convergence 8
make_cube_files 1
plots 1
$end

$plots
    grid_range (-6,6) (-6,6) (-6,6)
    grid_points 120 120 120
    alpha_molecular_orbital 34-35
$end